sat
model-to-constraint-start
(x)
(
  (define-fun z () Int
    (- 1))
  (define-fun x () Int
    1)
  (define-fun y () Int
    0)
)
model-to-constraint-end
model-to-constraint-start
(y)
(
  (define-fun z () Int
    (- 1))
  (define-fun x () Int
    1)
  (define-fun y () Int
    0)
)
model-to-constraint-end
